projected/problems_b25_r0_d7_m100_s666/_DIMACS/b25_d7_r0_s666_091.cnf
p cnf 327 636 25
c p show 1 2 3 4 5 6 7 8 9 10 11 12 13 14 15 16 17 18 19 20 21 22 23 24 25
-252 1 0
-252 5 0
-253 11 -24 0
-254 253 252 0
-255 -22 -24 0
-256 20 5 0
-257 -5 -20 0
-258 257 0
-258 256 0
-259 258 0
-259 255 0
-260 259 0
-260 254 0
-261 -23 19 0
-262 -14 0
-262 13 0
-263 262 0
-263 261 0
-264 21 14 0
-265 -11 25 0
-266 265 0
-266 264 0
-267 266 0
-267 263 0
-268 267 0
-268 260 0
-269 -24 21 0
-270 -8 8 0
-271 270 0
-271 269 0
-272 -3 0
-272 23 0
-273 -23 0
-273 3 0
-274 273 272 0
-275 -13 21 0
-276 275 274 0
-277 276 0
-277 271 0
-278 17 3 0
-279 5 -4 0
-280 279 278 0
-281 -4 11 0
-282 -11 4 0
-283 282 0
-283 281 0
-284 -12 21 0
-285 284 283 0
-286 285 280 0
-287 4 0
-287 -11 0
-288 11 0
-288 -4 0
-289 288 287 0
-290 12 0
-290 -21 0
-291 290 0
-291 289 0
-292 -17 0
-292 -3 0
-293 -5 0
-293 4 0
-294 293 0
-294 292 0
-295 294 291 0
-296 295 0
-296 286 0
-297 296 0
-297 277 0
-298 297 0
-298 268 0
-299 -20 0
-300 13 0
-300 6 0
-301 300 299 0
-302 7 0
-302 -8 0
-303 -19 -25 0
-304 303 302 0
-305 304 0
-305 301 0
-306 -17 0
-306 -6 0
-307 -14 0
-307 -13 0
-308 307 0
-308 306 0
-309 -23 0
-309 -18 0
-310 17 0
-310 16 0
-311 310 0
-311 309 0
-312 -17 -16 0
-313 23 18 0
-314 313 0
-314 312 0
-315 314 311 0
-316 315 0
-316 308 0
-317 316 305 0
-318 10 0
-318 -12 0
-319 12 0
-319 -10 0
-320 319 318 0
-321 6 0
-321 25 0
-322 321 0
-322 320 0
-323 -15 -13 0
-324 11 0
-324 24 0
-325 324 323 0
-326 325 0
-326 322 0
-327 -11 -2 0
-26 21 0
-26 12 0
-138 26 0
-138 327 0
-144 -3 0
-144 12 0
-150 -12 0
-150 3 0
-156 150 144 0
-162 1 13 0
-168 162 156 0
-174 168 138 0
-180 174 0
-180 326 0
-27 180 0
-27 317 0
-28 27 0
-28 298 0
-29 20 0
-30 -13 -6 0
-31 30 0
-31 29 0
-32 -7 8 0
-33 19 0
-33 25 0
-34 33 0
-34 32 0
-35 34 31 0
-36 17 6 0
-37 14 13 0
-38 37 36 0
-39 312 313 0
-40 309 310 0
-41 40 0
-41 39 0
-42 41 38 0
-43 42 0
-43 35 0
-44 -10 12 0
-45 -12 10 0
-46 45 0
-46 44 0
-47 -6 -25 0
-48 47 46 0
-49 15 0
-49 13 0
-50 -11 -24 0
-51 50 0
-51 49 0
-52 51 48 0
-53 11 0
-53 2 0
-54 -21 -12 0
-55 54 53 0
-56 3 -12 0
-57 12 -3 0
-58 57 0
-58 56 0
-59 -1 0
-59 -13 0
-60 59 0
-60 58 0
-61 60 0
-61 55 0
-62 61 52 0
-63 62 43 0
-64 -1 -5 0
-65 -11 0
-65 24 0
-66 65 0
-66 64 0
-67 22 0
-67 24 0
-68 -20 0
-68 -5 0
-69 5 0
-69 20 0
-70 69 68 0
-71 70 67 0
-72 71 66 0
-73 23 0
-73 -19 0
-74 14 -13 0
-75 74 73 0
-76 -21 0
-76 -14 0
-77 11 0
-77 -25 0
-78 77 76 0
-79 78 75 0
-80 79 72 0
-81 24 0
-81 -21 0
-82 8 0
-82 -8 0
-83 82 81 0
-84 3 -23 0
-85 23 -3 0
-86 85 0
-86 84 0
-87 13 0
-87 -21 0
-88 87 0
-88 86 0
-89 88 83 0
-90 291 0
-90 294 0
-91 280 0
-91 285 0
-92 91 90 0
-93 92 89 0
-94 93 80 0
-95 94 0
-95 63 0
-96 95 28 0
-97 -17 -24 0
-98 6 0
-98 11 0
-99 98 97 0
-100 -5 -23 0
-101 5 0
-101 -24 0
-102 101 100 0
-103 102 0
-103 99 0
-104 11 0
-104 14 0
-105 -14 0
-105 -11 0
-106 105 104 0
-107 -16 -10 0
-108 107 0
-108 106 0
-109 -11 0
-109 1 0
-110 -6 0
-110 7 0
-111 -7 0
-111 6 0
-112 111 110 0
-113 112 109 0
-114 113 0
-114 108 0
-115 114 103 0
-116 -11 -14 0
-117 14 11 0
-118 117 0
-118 116 0
-119 16 0
-119 10 0
-120 119 118 0
-121 11 -1 0
-122 6 -7 0
-123 7 -6 0
-124 123 0
-124 122 0
-125 124 0
-125 121 0
-126 125 120 0
-127 17 0
-127 24 0
-128 -6 -11 0
-129 128 0
-129 127 0
-130 5 0
-130 23 0
-131 -5 24 0
-132 131 0
-132 130 0
-133 132 129 0
-134 133 126 0
-135 134 0
-135 115 0
-136 -20 4 0
-137 -10 0
-137 4 0
-139 137 0
-139 136 0
-140 5 16 0
-141 4 0
-142 141 0
-142 140 0
-143 142 139 0
-145 3 -19 0
-146 19 -3 0
-147 146 0
-147 145 0
-148 -24 -3 0
-149 148 147 0
-151 14 -8 0
-152 23 0
-152 21 0
-153 152 0
-153 151 0
-154 153 0
-154 149 0
-155 154 143 0
-157 155 0
-157 135 0
-158 13 8 0
-159 9 -15 0
-160 159 158 0
-161 -9 0
-161 1 0
-163 -24 0
-163 -1 0
-164 163 0
-164 161 0
-165 164 160 0
-166 -12 0
-166 -2 0
-167 -15 0
-167 -25 0
-169 167 166 0
-170 1 -3 0
-171 12 0
-171 7 0
-172 171 0
-172 170 0
-173 172 169 0
-175 173 0
-175 165 0
-176 10 9 0
-177 -2 -15 0
-178 177 176 0
-179 14 0
-179 -3 0
-181 1 -6 0
-182 181 179 0
-183 182 178 0
-184 -12 0
-184 20 0
-185 -25 -6 0
-186 185 184 0
-187 23 22 0
-188 16 0
-188 -24 0
-189 188 0
-189 187 0
-190 189 186 0
-191 -23 0
-191 -22 0
-192 -16 24 0
-193 192 191 0
-194 12 -20 0
-195 25 0
-195 6 0
-196 195 0
-196 194 0
-197 196 193 0
-198 197 0
-198 190 0
-199 198 0
-199 183 0
-200 199 0
-200 175 0
-201 200 157 0
-202 -13 0
-202 -8 0
-203 -9 0
-203 15 0
-204 203 0
-204 202 0
-205 9 -1 0
-206 24 1 0
-207 206 205 0
-208 207 0
-208 204 0
-209 12 2 0
-210 15 25 0
-211 210 0
-211 209 0
-212 -1 0
-212 3 0
-213 -12 -7 0
-214 213 212 0
-215 214 0
-215 211 0
-216 215 208 0
-217 -10 0
-217 -9 0
-218 2 0
-218 15 0
-219 218 0
-219 217 0
-220 -14 3 0
-221 -1 0
-221 6 0
-222 221 0
-222 220 0
-223 222 0
-223 219 0
-224 193 0
-224 196 0
-225 186 0
-225 189 0
-226 225 224 0
-227 226 223 0
-228 227 216 0
-229 126 0
-229 133 0
-230 103 0
-230 114 0
-231 230 229 0
-232 20 0
-232 -4 0
-233 10 -4 0
-234 233 232 0
-235 -5 0
-235 -16 0
-236 -4 0
-237 236 235 0
-238 237 0
-238 234 0
-239 -3 0
-239 19 0
-240 -19 0
-240 3 0
-241 240 239 0
-242 24 0
-242 3 0
-243 242 0
-243 241 0
-244 -14 0
-244 8 0
-245 -23 -21 0
-246 245 244 0
-247 246 243 0
-248 247 0
-248 238 0
-249 248 231 0
-250 249 228 0
-251 250 0
-251 201 0
251 0
96 0
-29 -299 0
-300 -30 0
-30 -300 0
-31 -301 0
-301 -31 0
-32 -302 0
-302 -32 0
-33 -303 0
-303 -33 0
-304 -34 0
-305 -35 0
-306 -36 0
-36 -306 0
-307 -37 0
-37 -307 0
-38 -308 0
-308 -38 0
-310 -312 0
-313 -309 0
-41 -315 0
-315 -41 0
-316 -42 0
-317 -43 0
-46 -320 0
-321 -47 0
-47 -321 0
-48 -322 0
-322 -48 0
-323 -49 0
-324 -50 0
-325 -51 0
-326 -52 0
-52 -326 0
-327 -53 0
-53 -327 0
-26 -54 0
-54 -26 0
-55 -138 0
-138 -55 0
-58 -156 0
-59 -162 0
-60 -168 0
-168 -60 0
-174 -61 0
-61 -174 0
-62 -180 0
-180 -62 0
-27 -63 0
-64 -252 0
-65 -253 0
-66 -254 0
-254 -66 0
-67 -255 0
-255 -67 0
-258 -70 0
-259 -71 0
-260 -72 0
-261 -73 0
-73 -261 0
-262 -74 0
-74 -262 0
-75 -263 0
-264 -76 0
-76 -264 0
-77 -265 0
-78 -266 0
-79 -267 0
-267 -79 0
-268 -80 0
-80 -268 0
-81 -269 0
-270 -82 0
-82 -270 0
-83 -271 0
-86 -274 0
-275 -87 0
-87 -275 0
-88 -276 0
-89 -277 0
-277 -89 0
-283 -289 0
-290 -284 0
-284 -290 0
-285 -291 0
-291 -285 0
-278 -292 0
-293 -279 0
-279 -293 0
-280 -294 0
-296 -92 0
-297 -93 0
-93 -297 0
-94 -298 0
-202 -158 0
-158 -202 0
-159 -203 0
-160 -204 0
-205 -161 0
-161 -205 0
-206 -163 0
-163 -206 0
-164 -207 0
-165 -208 0
-209 -166 0
-210 -167 0
-211 -169 0
-170 -212 0
-171 -213 0
-172 -214 0
-214 -172 0
-215 -173 0
-173 -215 0
-175 -216 0
-176 -217 0
-177 -218 0
-178 -219 0
-219 -178 0
-220 -179 0
-221 -181 0
-222 -182 0
-223 -183 0
-183 -223 0
-191 -187 0
-187 -191 0
-192 -188 0
-188 -192 0
-189 -193 0
-193 -189 0
-194 -184 0
-184 -194 0
-185 -195 0
-186 -196 0
-198 -226 0
-199 -227 0
-200 -228 0
-228 -200 0
-118 -106 0
-106 -118 0
-119 -107 0
-107 -119 0
-108 -120 0
-121 -109 0
-124 -112 0
-125 -113 0
-113 -125 0
-114 -126 0
-126 -114 0
-97 -127 0
-127 -97 0
-98 -128 0
-128 -98 0
-129 -99 0
-100 -130 0
-130 -100 0
-101 -131 0
-131 -101 0
-132 -102 0
-133 -103 0
-103 -133 0
-135 -231 0
-231 -135 0
-232 -136 0
-233 -137 0
-234 -139 0
-235 -140 0
-141 -236 0
-236 -141 0
-237 -142 0
-238 -143 0
-143 -238 0
-147 -241 0
-242 -148 0
-148 -242 0
-149 -243 0
-151 -244 0
-245 -152 0
-152 -245 0
-153 -246 0
-154 -247 0
-155 -248 0
-248 -155 0
-249 -157 0
-157 -249 0
