projected/problems_b25_r0_d7_m100_s666/b25_d7_r0_s666_091.smt2
(set-logic QF_UF)
(declare-fun A0 () Bool)
(declare-fun A1 () Bool)
(declare-fun A2 () Bool)
(declare-fun A3 () Bool)
(declare-fun A4 () Bool)
(declare-fun A5 () Bool)
(declare-fun A6 () Bool)
(declare-fun A7 () Bool)
(declare-fun A8 () Bool)
(declare-fun A9 () Bool)
(declare-fun A10 () Bool)
(declare-fun A11 () Bool)
(declare-fun A12 () Bool)
(declare-fun A13 () Bool)
(declare-fun A14 () Bool)
(declare-fun A15 () Bool)
(declare-fun A16 () Bool)
(declare-fun A17 () Bool)
(declare-fun A18 () Bool)
(declare-fun A19 () Bool)
(declare-fun A20 () Bool)
(declare-fun A21 () Bool)
(declare-fun A22 () Bool)
(declare-fun A23 () Bool)
(declare-fun A24 () Bool)
(assert (let ((.def_0 (or A19 A19))) (let ((.def_1 (and A12 A5))) (let ((.def_2 (not .def_1))) (let ((.def_3 (and .def_2 .def_0))) (let ((.def_4 (not .def_3))) (let ((.def_5 (not A6))) (let ((.def_6 (or .def_5 A7))) (let ((.def_7 (not .def_6))) (let ((.def_8 (and A18 A24))) (let ((.def_9 (not .def_8))) (let ((.def_10 (or .def_9 .def_7))) (let ((.def_11 (and .def_10 .def_4))) (let ((.def_12 (not A5))) (let ((.def_13 (not A16))) (let ((.def_14 (and .def_13 .def_12))) (let ((.def_15 (not .def_14))) (let ((.def_16 (not A12))) (let ((.def_17 (not A13))) (let ((.def_18 (and .def_17 .def_16))) (let ((.def_19 (not .def_18))) (let ((.def_20 (or .def_19 .def_15))) (let ((.def_21 (not .def_20))) (let ((.def_22 (and A16 A15))) (let ((.def_23 (or A22 A17))) (let ((.def_24 (= .def_23 .def_22))) (let ((.def_25 (not .def_24))) (let ((.def_26 (and .def_25 .def_21))) (let ((.def_27 (or .def_26 .def_11))) (let ((.def_28 (= A11 A9))) (let ((.def_29 (and A5 A24))) (let ((.def_30 (not .def_29))) (let ((.def_31 (or .def_30 .def_28))) (let ((.def_32 (not .def_31))) (let ((.def_33 (not A14))) (let ((.def_34 (or .def_33 .def_16))) (let ((.def_35 (and A10 A23))) (let ((.def_36 (or .def_35 .def_34))) (let ((.def_37 (and .def_36 .def_32))) (let ((.def_38 (not .def_37))) (let ((.def_39 (not A1))) (let ((.def_40 (not A10))) (let ((.def_41 (or .def_40 .def_39))) (let ((.def_42 (not .def_41))) (let ((.def_43 (and A20 A11))) (let ((.def_44 (not .def_43))) (let ((.def_45 (or .def_44 .def_42))) (let ((.def_46 (not .def_45))) (let ((.def_47 (not A2))) (let ((.def_48 (not A11))) (let ((.def_49 (= .def_48 .def_47))) (let ((.def_50 (not A0))) (let ((.def_51 (and .def_50 .def_16))) (let ((.def_52 (and .def_51 .def_49))) (let ((.def_53 (not .def_52))) (let ((.def_54 (or .def_53 .def_46))) (let ((.def_55 (not .def_54))) (let ((.def_56 (or .def_55 .def_38))) (let ((.def_57 (not .def_56))) (let ((.def_58 (and .def_57 .def_27))) (let ((.def_59 (not A4))) (let ((.def_60 (or .def_50 .def_59))) (let ((.def_61 (and .def_40 A23))) (let ((.def_62 (and .def_61 .def_60))) (let ((.def_63 (not .def_62))) (let ((.def_64 (and A21 A23))) (let ((.def_65 (not .def_64))) (let ((.def_66 (not A19))) (let ((.def_67 (= A4 .def_66))) (let ((.def_68 (and .def_67 .def_65))) (let ((.def_69 (and .def_68 .def_63))) (let ((.def_70 (not A22))) (let ((.def_71 (or .def_70 A18))) (let ((.def_72 (not .def_71))) (let ((.def_73 (and .def_17 A12))) (let ((.def_74 (not .def_73))) (let ((.def_75 (or .def_74 .def_72))) (let ((.def_76 (or A20 A13))) (let ((.def_77 (not .def_76))) (let ((.def_78 (not A24))) (let ((.def_79 (and A10 .def_78))) (let ((.def_80 (or .def_79 .def_77))) (let ((.def_81 (or .def_80 .def_75))) (let ((.def_82 (not .def_81))) (let ((.def_83 (and .def_82 .def_69))) (let ((.def_84 (not .def_83))) (let ((.def_85 (not A20))) (let ((.def_86 (and A23 .def_85))) (let ((.def_87 (not A7))) (let ((.def_88 (or .def_87 A7))) (let ((.def_89 (not .def_88))) (let ((.def_90 (or .def_89 .def_86))) (let ((.def_91 (= .def_70 .def_47))) (let ((.def_92 (or .def_16 A20))) (let ((.def_93 (not .def_92))) (let ((.def_94 (and .def_93 .def_91))) (let ((.def_95 (or .def_94 .def_90))) (let ((.def_96 (not .def_95))) (let ((.def_97 (= A10 A3))) (let ((.def_98 (and A11 .def_85))) (let ((.def_99 (not .def_98))) (let ((.def_100 (or .def_99 .def_97))) (let ((.def_101 (not .def_100))) (let ((.def_102 (or A16 A2))) (let ((.def_103 (and .def_59 A3))) (let ((.def_104 (not .def_103))) (let ((.def_105 (or .def_104 .def_102))) (let ((.def_106 (= .def_105 .def_101))) (let ((.def_107 (and .def_106 .def_96))) (let ((.def_108 (not .def_107))) (let ((.def_109 (or .def_108 .def_84))) (let ((.def_110 (= .def_109 .def_58))) (let ((.def_111 (not .def_110))) (let ((.def_112 (and .def_16 .def_87))) (let ((.def_113 (not .def_112))) (let ((.def_114 (or A8 .def_33))) (let ((.def_115 (or .def_114 .def_113))) (let ((.def_116 (or A8 .def_50))) (let ((.def_117 (not .def_116))) (let ((.def_118 (or A23 A0))) (let ((.def_119 (not .def_118))) (let ((.def_120 (and .def_119 .def_117))) (let ((.def_121 (or .def_120 .def_115))) (let ((.def_122 (or A11 A1))) (let ((.def_123 (or A14 A24))) (let ((.def_124 (and .def_123 .def_122))) (let ((.def_125 (or A0 .def_47))) (let ((.def_126 (and A11 A6))) (let ((.def_127 (and .def_126 .def_125))) (let ((.def_128 (not .def_127))) (let ((.def_129 (and .def_128 .def_124))) (let ((.def_130 (not .def_129))) (let ((.def_131 (and .def_130 .def_121))) (let ((.def_132 (or A9 A8))) (let ((.def_133 (or .def_39 .def_33))) (let ((.def_134 (or .def_133 .def_132))) (let ((.def_135 (not .def_134))) (let ((.def_136 (or .def_17 A2))) (let ((.def_137 (and .def_50 A5))) (let ((.def_138 (and .def_137 .def_136))) (let ((.def_139 (and .def_138 .def_135))) (let ((.def_140 (not .def_139))) (let ((.def_141 (not A21))) (let ((.def_142 (and .def_70 .def_141))) (let ((.def_143 (not .def_142))) (let ((.def_144 (not A15))) (let ((.def_145 (or .def_144 A23))) (let ((.def_146 (not .def_145))) (let ((.def_147 (and .def_146 .def_143))) (let ((.def_148 (not .def_147))) (let ((.def_149 (or A11 .def_66))) (let ((.def_150 (not .def_149))) (let ((.def_151 (or .def_78 .def_12))) (let ((.def_152 (or .def_151 .def_150))) (let ((.def_153 (= .def_152 .def_148))) (let ((.def_154 (and .def_153 .def_140))) (let ((.def_155 (and .def_154 .def_131))) (let ((.def_156 (not .def_155))) (let ((.def_157 (= .def_17 A10))) (let ((.def_158 (not .def_157))) (let ((.def_159 (and A15 A9))) (let ((.def_160 (not .def_159))) (let ((.def_161 (and .def_160 .def_158))) (let ((.def_162 (or A10 .def_50))) (let ((.def_163 (= .def_5 .def_12))) (let ((.def_164 (and .def_163 .def_162))) (let ((.def_165 (not .def_164))) (let ((.def_166 (and .def_165 .def_161))) (let ((.def_167 (not .def_166))) (let ((.def_168 (not A23))) (let ((.def_169 (or .def_13 .def_168))) (let ((.def_170 (not .def_169))) (let ((.def_171 (and A5 A10))) (let ((.def_172 (not .def_171))) (let ((.def_173 (and .def_172 .def_170))) (let ((.def_174 (or .def_59 .def_70))) (let ((.def_175 (not .def_174))) (let ((.def_176 (and A4 .def_168))) (let ((.def_177 (not .def_176))) (let ((.def_178 (and .def_177 .def_175))) (let ((.def_179 (or .def_178 .def_173))) (let ((.def_180 (not .def_179))) (let ((.def_181 (= .def_180 .def_167))) (let ((.def_182 (not .def_181))) (let ((.def_183 (not A3))) (let ((.def_184 (and A19 .def_183))) (let ((.def_185 (or A9 .def_183))) (let ((.def_186 (or .def_185 .def_184))) (let ((.def_187 (and .def_59 .def_144))) (let ((.def_188 (or A3 A3))) (let ((.def_189 (not .def_188))) (let ((.def_190 (or .def_189 .def_187))) (let ((.def_191 (and .def_190 .def_186))) (let ((.def_192 (not .def_191))) (let ((.def_193 (not A18))) (let ((.def_194 (= .def_193 .def_47))) (let ((.def_195 (and A23 A2))) (let ((.def_196 (not .def_195))) (let ((.def_197 (or .def_196 .def_194))) (let ((.def_198 (or A13 .def_87))) (let ((.def_199 (or .def_70 .def_85))) (let ((.def_200 (not .def_199))) (let ((.def_201 (and .def_200 .def_198))) (let ((.def_202 (and .def_201 .def_197))) (let ((.def_203 (or .def_202 .def_192))) (let ((.def_204 (not .def_203))) (let ((.def_205 (or .def_204 .def_182))) (let ((.def_206 (not .def_205))) (let ((.def_207 (= .def_206 .def_156))) (let ((.def_208 (and .def_207 .def_111))) .def_208))))))))))))))))))))))))))))))))))))))))))))))))))))))))))))))))))))))))))))))))))))))))))))))))))))))))))))))))))))))))))))))))))))))))))))))))))))))))))))))))))))))))))))))))))))))))))))))))))))))))))))))))))
(check-sat)
